1638356400
1638379800
1638442800
1638466200
1638529200
1638552600
1638889200
1638896400
1638975600
1638982800
1639062000
1639069200
1639148400
1639155600
1639378800
1639418400
1639494000
1639501200
1639580400
1639587600
1639666800
1639674000
1639753200
1639760400
1640012400
1640019600
1640098800
1640106000
1640185200
1640192400
1640271600
1640278800
